p cnf 15 27
-15 13 6 0
-15 -12 8 0
15 11 7 0
-15 11 -4 0
15 11 4 0
15 -10 8 0
-15 -8 6 0
15 -7 4 0
-15 6 -2 0
-15 6 -1 0
-14 8 -1 0
14 7 4 0
14 -6 3 0
14 3 1 0
13 7 -6 0
-13 2 1 0
-13 2 -1 0
12 11 6 0
-12 -7 -1 0
11 -7 -2 0
-10 9 5 0
9 -8 3 0
7 -6 -5 0
7 6 -4 0
7 -5 3 0
-7 5 1 0
-7 -4 -3 0
